/*********************************************
 * OPL 12.8.0.0 Data
 * Author: Lenovo
 * Creation Date: Sep 25, 2018 at 11:15:27 AM
 *********************************************/
Products = {"gas" "chloride"};
Components = {"nitrogen" "hydrogen" "chlorine"};

Demand = [[1 3 0] [1 4 1]];
Profit = [40 50];
Stock = [50 180 40];